644,108
767,320
394,704
809,818
754,962
141,454
273,294
49,99
899,606
247,231
409,174
33,413
853,489
778,735
798,395
874,124
216,532
160,569
56,240
625,451
391,936
995,872
477,671
796,980
49,723
226,512
548,629
244,301
941,504
298,186
391,346
69,689
574,199
975,372
186,691
746,210
171,794
582,442
736,417
267,46
981,648
169,548
783,726
154,737
146,103
870,528
411,817
412,572
346,430
416,666

1162
1068
1273
1100
1081
1354
1278
967
1261
